! RKS B3LYP 6-31+G** NormalSCF Opt NOSOSCF CHELPG

*xyz 0 1
S -0.50687 -0.57312 0.14235
C -0.50687 1.26637 0.14235
C 0.85106 1.79287 -0.33324
O 0.83267 3.23071 -0.32678
C 2.07718 3.75407 -0.76256
H -0.71363 1.68791 1.13416
H -1.28727 1.68791 -0.50373
H 1.06495 1.44925 -1.35349
H 1.65478 1.44923 0.33061
H 2.01796 4.84565 -0.74185
H 2.29081 3.43732 -1.78805
H 2.88387 3.43736 -0.09431
*