! RKS B3LYP 6-31+G** NormalSCF Opt NOSOSCF CHELPG

*xyz 0 1
S 0.62841 -1.34418 0.64721
C 0.62841 0.49382 0.64721
C -0.37118 1.02347 -0.38620
O -0.35089 2.46085 -0.36672
C -1.26981 2.99758 -1.31455
C -1.20854 4.51915 -1.25580
O -2.12399 5.08136 -2.19960
C -2.09010 6.50090 -2.16833
H 1.61608 0.91495 0.42045
H 0.36901 0.91492 1.62678
H -1.38831 0.68292 -0.15337
H -0.10588 0.68175 -1.39474
H -2.28798 2.65830 -1.08980
H -1.01644 2.65484 -2.32481
H -0.18906 4.85740 -1.47794
H -1.45889 4.86099 -0.24406
H -2.80447 6.87843 -2.90493
H -1.09294 6.86721 -2.43019
H -2.38055 6.87029 -1.18000
*