! RKS B3LYP 6-31+G** NormalSCF Opt NOSOSCF CHELPG

*xyz 0 1
S -1.64421 -2.78705 0.98863
C -1.64421 -0.94894 0.98863
C -0.42654 -0.42099 0.22365
O -0.44848 1.01652 0.23661
C 0.67098 1.54804 -0.46562
C 0.60667 3.06994 -0.42731
O 1.72604 3.61595 -1.12903
C 1.70454 5.04145 -1.11540
C 2.91751 5.56478 -1.87606
O 2.90691 6.99277 -1.86935
C 4.02995 7.52388 -2.57212
C 3.96763 9.04632 -2.53449
O 5.08671 9.58990 -3.23454
C 5.06399 11.01090 -3.22187
H -1.62568 -0.52742 2.00162
H -2.54880 -0.52739 0.53241
H -0.44388 -0.76320 -0.81906
H 0.50524 -0.76247 0.69249
H 0.66429 1.20348 -1.50661
H 1.60521 1.20551 -0.00486
H 0.61249 3.41578 0.61340
H -0.32743 3.41392 -0.88779
H 1.72592 5.40991 -0.08276
H 0.78426 5.41011 -1.58411
H 2.89597 5.19430 -2.90810
H 3.83715 5.19406 -1.40744
H 4.02237 7.17688 -3.61239
H 4.96214 7.17815 -2.10956
H 3.97252 9.39151 -1.49344
H 3.03363 9.39009 -2.99533
H 5.93821 11.37418 -3.76860
H 5.11336 11.38586 -2.19496
H 4.16228 11.38414 -3.71691
*