! RKS B3LYP 6-31+G** NormalSCF Opt NOSOSCF CHELPG

*xyz 0 1
S 1.24801 -2.05962 0.69716
C 1.24801 -0.22136 0.69716
C 0.01459 0.30652 -0.04259
O 0.03541 1.74402 -0.02894
C -1.09720 2.27601 -0.70969
C -1.03450 3.79826 -0.66871
O -2.16634 4.34568 -1.34965
C -2.14453 5.77197 -1.33378
C -3.37154 6.29538 -2.07171
O -3.36627 7.72358 -2.06591
C -4.49833 8.24696 -2.74703
H 2.14296 0.20006 0.22220
H 1.25055 0.20009 1.71033
H -0.90716 -0.03614 0.44475
H 0.01124 -0.03514 -1.08557
H -2.02262 1.93074 -0.23337
H -1.10847 1.93389 -1.75148
H -0.10873 4.14436 -1.14408
H -1.02297 4.14118 0.37298
H -1.23298 6.14121 -1.81871
H -2.14733 6.13833 -0.30032
H -4.28193 5.92249 -1.58687
H -3.36858 5.92490 -3.10401
H -4.44588 9.33851 -2.71391
H -5.42271 7.92678 -2.25662
H -4.49700 7.92900 -3.79416
*