! RKS B3LYP 6-31+G** NormalSCF Opt NOSOSCF CHELPG

*xyz 0 1
S -2.03496 1.46292 -0.01071
C -0.19743 1.41116 -0.01056
C 0.28973 -0.04132 -0.01782
O 1.72742 -0.05714 -0.01734
C 2.22168 -1.39318 -0.02447
C 3.74541 -1.36154 -0.02403
O 4.25507 -2.69764 -0.03172
C 5.68158 -2.71130 -0.03143
C 6.16391 -4.15730 -0.04045
O 7.59177 -4.19042 -0.04031
C 8.07722 -5.52605 -0.04872
H 0.23838 1.91797 0.85970
H 0.23875 1.92673 -0.87549
H -0.06713 -0.56644 -0.91305
H -0.06782 -0.57566 0.87167
H 1.86270 -1.92548 -0.91344
H 1.86243 -1.93499 0.85860
H 4.10522 -0.82927 0.86478
H 4.10552 -0.81892 -0.90644
H 6.06402 -2.19677 0.85815
H 6.06455 -2.18562 -0.91424
H 5.77751 -4.67083 -0.92922
H 5.77708 -4.68203 0.84161
H 9.17006 -5.49533 -0.04841
H 7.74294 -6.05012 -0.94935
H 7.74282 -6.06139 0.84525
*