! RKS B3LYP 6-31+G** NormalSCF Opt NOSOSCF CHELPG

*xyz 0 1
S -4.20647 -2.38342 -1.82145
C -2.36939 -2.34129 -1.79041
C -1.88306 -1.17846 -0.92031
O -0.44567 -1.16660 -0.91265
C 0.04745 -0.09741 -0.11212
C 1.56994 -0.12294 -0.13432
O 2.07630 0.94664 0.66664
C 3.50104 0.95947 0.67404
C 3.97973 2.11604 1.54150
O 5.40660 2.13808 1.55688
C 5.89784 3.20781 2.36095
C 7.42028 3.18386 2.34291
O 7.91826 4.25214 3.14704
C 9.34410 4.26841 3.16027
C 9.82109 5.42435 4.02986
O 11.24744 5.44478 4.04546
C 11.74166 6.51471 4.84992
C 13.26491 6.48927 4.83255
O 13.76710 7.55659 5.63479
C 15.18842 7.57006 5.64656
H -1.93283 -2.23032 -2.79107
H -1.93253 -3.26989 -1.40184
H -2.23914 -1.28900 0.11193
H -2.24017 -0.21948 -1.31696
H -0.30939 -0.19917 0.91971
H -0.31220 0.86393 -0.49815
H 1.92877 -0.02123 -1.16552
H 1.93141 -1.08373 0.25189
H 3.88427 1.07661 -0.34668
H 3.88654 0.01252 1.07058
H 3.59445 1.99939 2.56170
H 3.59329 3.06273 1.14491
H 5.53638 3.10337 3.39111
H 5.53607 4.16825 1.97438
H 7.78116 3.28794 1.31253
H 7.78132 2.22249 2.72799
H 9.72983 4.38639 2.14059
H 9.72893 3.32110 3.55658
H 9.43444 5.30585 5.04929
H 9.43460 6.37118 3.63354
H 11.37912 6.41061 5.87959
H 11.38059 7.47500 4.46263
H 13.62526 6.59109 3.80182
H 13.62372 5.52720 5.21802
H 15.51997 8.40267 6.27227
H 15.57814 7.71622 4.63447
H 15.57637 6.63833 6.06937
*